unsat
(define-fun f ((x (_ BitVec 64))) (_ BitVec 64) (im (bvand #b0000000000000000000000000000000000000000000000000000000000000001 (bvnot x)) #b0000000000000000000000000000000000000000000000000000000000000000 (shesh (arba (ehad x)))))
10.48user 0.01system 0:10.50elapsed 99%CPU (0avgtext+0avgdata 58468maxresident)k
16inputs+8outputs (0major+9919minor)pagefaults 0swaps
